solution status: time limit reached
objective value:                                   82
$and$benchmarks/c432.v:202$460_y                   -1 	(obj:0)
$and$benchmarks/c432.v:202$460_z                   11 	(obj:0)
$xor$benchmarks/c432.v:145$332_y                    4 	(obj:0)
$xor$benchmarks/c432.v:145$332_z                   -5 	(obj:0)
$and$benchmarks/c432.v:204$468_y                    3 	(obj:0)
$and$benchmarks/c432.v:204$468_z                   15 	(obj:0)
$not$benchmarks/c432.v:0$305_y                     -2 	(obj:0)
$not$benchmarks/c432.v:0$305_z                     -6 	(obj:0)
$xor$benchmarks/c432.v:146$333_y                    4 	(obj:0)
$xor$benchmarks/c432.v:146$333_z                   -7 	(obj:0)
$and$benchmarks/c432.v:130$328_y                    2 	(obj:0)
$and$benchmarks/c432.v:130$328_z                   -4 	(obj:0)
$not$benchmarks/c432.v:0$303_z                     -4 	(obj:0)
$and$benchmarks/c432.v:204$469_y                    3 	(obj:0)
$and$benchmarks/c432.v:204$469_z                   21 	(obj:0)
$and$benchmarks/c432.v:169$373_z                   -8 	(obj:0)
$xor$benchmarks/c432.v:154$345_y                    3 	(obj:0)
$xor$benchmarks/c432.v:154$345_z                   -6 	(obj:0)
$_38__5_y                                           3 	(obj:0)
$_38__5_z                                          24 	(obj:0)
$not$benchmarks/c432.v:0$295_z                     -6 	(obj:0)
$and$benchmarks/c432.v:163$361_y                    5 	(obj:0)
$and$benchmarks/c432.v:163$361_z                   -7 	(obj:0)
$not$benchmarks/c432.v:0$451_y                      4 	(obj:0)
$not$benchmarks/c432.v:0$451_z                     13 	(obj:0)
$and$benchmarks/c432.v:167$369_y                    3 	(obj:0)
$and$benchmarks/c432.v:167$369_z                   -8 	(obj:0)
$and$benchmarks/c432.v:203$465_y                    3 	(obj:0)
$and$benchmarks/c432.v:203$465_z                   17 	(obj:0)
$xor$benchmarks/c432.v:156$348_z                   -5 	(obj:0)
$and$benchmarks/c432.v:164$363_y                    1 	(obj:0)
$and$benchmarks/c432.v:164$363_z                   -8 	(obj:0)
$not$benchmarks/c432.v:0$293_y                      3 	(obj:0)
$not$benchmarks/c432.v:0$293_z                     -5 	(obj:0)
$and$benchmarks/c432.v:165$365_y                    4 	(obj:0)
$and$benchmarks/c432.v:165$365_z                   -8 	(obj:0)
$and$benchmarks/c432.v:166$367_y                    3 	(obj:0)
$and$benchmarks/c432.v:166$367_z                  -10 	(obj:0)
$not$benchmarks/c432.v:0$291_z                     -2 	(obj:0)
$xor$benchmarks/c432.v:150$339_y                    4 	(obj:0)
$xor$benchmarks/c432.v:150$339_z                   -6 	(obj:0)
$not$benchmarks/c432.v:0$287_z                     -1 	(obj:0)
$or$benchmarks/c432.v:197$444_z                    -9 	(obj:0)
$xor$benchmarks/c432.v:152$342_y                    3 	(obj:0)
$xor$benchmarks/c432.v:152$342_z                   -7 	(obj:0)
$xor$benchmarks/c432.v:148$336_y                    2 	(obj:0)
$xor$benchmarks/c432.v:148$336_z                   -6 	(obj:0)
$and$benchmarks/c432.v:162$359_y                    3 	(obj:0)
$and$benchmarks/c432.v:162$359_z                  -11 	(obj:0)
$not$benchmarks/c432.v:0$374_y                      3 	(obj:0)
$not$benchmarks/c432.v:0$374_z                     -9 	(obj:0)
$xor$benchmarks/c432.v:143$330_y                    2 	(obj:0)
$xor$benchmarks/c432.v:143$330_z                   -5 	(obj:0)
$not$benchmarks/c432.v:0$462_y                      3 	(obj:0)
$not$benchmarks/c432.v:0$462_z                      7 	(obj:0)
$_40__5_y                                           3 	(obj:0)
$_40__5_z                                         -12 	(obj:0)
$and$benchmarks/c432.v:161$357_y                    3 	(obj:0)
$and$benchmarks/c432.v:161$357_z                   -3 	(obj:0)
$and$benchmarks/c432.v:168$371_y                    5 	(obj:0)
$and$benchmarks/c432.v:168$371_z                   -6 	(obj:0)
$not$benchmarks/c432.v:0$297_y                      4 	(obj:0)
$not$benchmarks/c432.v:0$297_z                     -9 	(obj:0)
$not$benchmarks/c432.v:0$299_y                      5 	(obj:0)
$not$benchmarks/c432.v:0$299_z                     -3 	(obj:0)
$_39__5_y                                           3 	(obj:0)
$_39__5_z                                          -1 	(obj:0)
$and$benchmarks/c432.v:203$464_y                    3 	(obj:0)
$and$benchmarks/c432.v:203$464_z                   13 	(obj:0)
$and$benchmarks/c432.v:170$381_y                    4 	(obj:0)
$and$benchmarks/c432.v:170$381_z                  -10 	(obj:0)
$not$benchmarks/c432.v:0$301_y                      3 	(obj:0)
$not$benchmarks/c432.v:0$301_z                     -4 	(obj:0)
$xor$benchmarks/c432.v:144$331_y                    4 	(obj:0)
$xor$benchmarks/c432.v:144$331_z                   -4 	(obj:0)
x84                                                 3 	(obj:1)
x86                                                 1 	(obj:1)
x90                                                 2 	(obj:1)
x95                                                 1 	(obj:1)
x97                                                 1 	(obj:1)
x99                                                 3 	(obj:1)
x102                                                2 	(obj:1)
x105                                                3 	(obj:1)
x107                                                3 	(obj:1)
x115                                                3 	(obj:1)
x120                                                1 	(obj:1)
x128                                                2 	(obj:1)
x131                                                3 	(obj:1)
x132                                                3 	(obj:1)
x133                                                2 	(obj:1)
x135                                                2 	(obj:1)
x138                                                3 	(obj:1)
x142                                                1 	(obj:1)
x147                                                3 	(obj:1)
x148                                                3 	(obj:1)
x152                                                2 	(obj:1)
x153                                                3 	(obj:1)
x154                                                3 	(obj:1)
x155                                                3 	(obj:1)
x161                                                1 	(obj:1)
x163                                                1 	(obj:1)
x166                                                2 	(obj:1)
x171                                                1 	(obj:1)
x173                                                1 	(obj:1)
x178                                                2 	(obj:1)
x180                                                2 	(obj:1)
x182                                                3 	(obj:1)
x188                                                1 	(obj:1)
x190                                                3 	(obj:1)
x192                                                3 	(obj:1)
x200                                                1 	(obj:1)
x202                                                1 	(obj:1)
x204                                                1 	(obj:1)
x206                                                3 	(obj:1)
